p wcnf 14 85 4
1 1 3 5 7 9 11 13 0
2 2 4 6 8 10 12 14 0
4 -1 -4 0
4 -2 -3 0
4 -1 -6 0
4 -2 -5 0
4 -1 -8 0
4 -2 -7 0
4 -1 -10 0
4 -2 -9 0
4 -3 -6 0
4 -4 -5 0
4 -3 -8 0
4 -4 -7 0
4 -3 -10 0
4 -4 -9 0
4 -3 -12 0
4 -4 -11 0
4 -5 -10 0
4 -6 -9 0
4 -5 -12 0
4 -6 -11 0
4 -5 -14 0
4 -6 -13 0
4 -7 -10 0
4 -8 -9 0
4 -7 -12 0
4 -8 -11 0
4 -7 -14 0
4 -8 -13 0
4 -9 -12 0
4 -10 -11 0
4 -9 -14 0
4 -10 -13 0
4 -11 -14 0
4 -12 -13 0
4 -1 -3 0
4 -1 -5 0
4 -1 -7 0
4 -1 -9 0
4 -1 -11 0
4 -1 -13 0
4 -2 -4 0
4 -2 -6 0
4 -2 -8 0
4 -2 -10 0
4 -2 -12 0
4 -2 -14 0
4 -3 -5 0
4 -3 -7 0
4 -3 -9 0
4 -3 -11 0
4 -3 -13 0
4 -4 -6 0
4 -4 -8 0
4 -4 -10 0
4 -4 -12 0
4 -4 -14 0
4 -5 -7 0
4 -5 -9 0
4 -5 -11 0
4 -5 -13 0
4 -6 -8 0
4 -6 -10 0
4 -6 -12 0
4 -6 -14 0
4 -7 -9 0
4 -7 -11 0
4 -7 -13 0
4 -8 -10 0
4 -8 -12 0
4 -8 -14 0
4 -9 -11 0
4 -9 -13 0
4 -10 -12 0
4 -10 -14 0
4 -11 -13 0
4 -12 -14 0
4 -1 -2 0
4 -3 -4 0
4 -5 -6 0
4 -7 -8 0
4 -9 -10 0
4 -11 -12 0
4 -13 -14 0
